100
32
13
16
8
2
9
31
7
32
12
18
5
12
22
12
10
14
9
9
17
7
26
8
8
26
3
17
10
25
12
1
1
2
16
7
25
1
1
2
1
1
7
4
17
4
2
3
2
1
1
2
2
17
1
2
5
1
5
3
1
18
2
2
1
2
6
17
1
3
1
4
2
2
7
18
5
5
2
17
4
11
1
2
17
22
3
3
1
9
19
1
2
3
2
1
2
3
20
1
3
4